(set-info :smt-lib-version 2.6)
(set-logic UF)
(set-info :source |
Generated by: Andrew Reynolds
Generated on: 2017-04-28
Generator: Sledgehammer, converted to v2.6 by CVC4
Application: Verfication goals in Isabelle
Target solver: CVC4, Z3
Publications: "A Decision Procedure for (Co)Datatypes" by Andrew Reynolds and Jasmin Blanchette, CADE 2015.
|)
(set-info :license "https://creativecommons.org/licenses/by/4.0/")
(set-info :category "industrial")
(set-info :status unknown)


(declare-sort A$ 0)
(declare-sort Nat$ 0)
(declare-sort Enat_set$ 0)
(declare-sort Enat_bool_fun$ 0)
(declare-sort Enat_enat_fun$ 0)
(declare-sort A_llist_bool_fun$ 0)
(declare-sort A_llist_enat_fun$ 0)
(declare-sort A_llist_a_llist_fun$ 0)
(declare-sort Enat_enat_bool_fun_fun$ 0)
(declare-sort A_llist_a_llist_bool_fun_fun$ 0)
(declare-sort Nat_option$ 0)
(declare-sort Enat$ 0)
(declare-fun none$ () Nat_option$)
(declare-fun the$ (Nat_option$) Nat$)
(declare-fun some$ (Nat$) Nat_option$)
(declare-fun rep_enat$ (Enat$) Nat_option$)
(declare-fun abs_enat$ (Nat_option$) Enat$)
(declare-sort A_llist$ 0)
(declare-fun lNil$ () A_llist$)
(declare-fun lhd$ (A_llist$) A$)
(declare-fun ltl$ (A_llist$) A_llist$)
(declare-fun lCons$ (A$ A_llist$) A_llist$)
(declare-fun uu$ (Enat_set$) Enat_bool_fun$)
(declare-fun xs$ () A_llist$)
(declare-fun ys$ () A_llist$)
(declare-fun min$ (Enat$) Enat_enat_fun$)
(declare-fun fixp$ (Enat_enat_fun$) Enat$)
(declare-fun less$ (Enat$) Enat_bool_fun$)
(declare-fun llcp$ (A_llist$) A_llist_enat_fun$)
(declare-fun plus$ (Enat$) Enat_enat_fun$)
(declare-fun ldrop$ (Enat$) A_llist_a_llist_fun$)
(declare-fun ltake$ (Enat$) A_llist_a_llist_fun$)
(declare-fun minus$ (Enat$) Enat_enat_fun$)
(declare-fun member$ (Enat$ Enat_set$) Bool)
(declare-fun collect$ (Enat_bool_fun$) Enat_set$)
(declare-fun fun_app$ (Enat_bool_fun$ Enat$) Bool)
(declare-fun lappend$ (A_llist$) A_llist_a_llist_fun$)
(declare-fun less_eq$ () Enat_enat_bool_fun_fun$)
(declare-fun llength$ () A_llist_enat_fun$)
(declare-fun lprefix$ () A_llist_a_llist_bool_fun_fun$)
(declare-fun antimono$ (Enat_enat_fun$) Bool)
(declare-fun fun_app$a (Enat_enat_bool_fun_fun$ Enat$) Enat_bool_fun$)
(declare-fun fun_app$b (A_llist_enat_fun$ A_llist$) Enat$)
(declare-fun fun_app$c (Enat_enat_fun$ Enat$) Enat$)
(declare-fun fun_app$d (A_llist_bool_fun$ A_llist$) Bool)
(declare-fun fun_app$e (A_llist_a_llist_bool_fun_fun$ A_llist$) A_llist_bool_fun$)
(declare-fun fun_app$f (A_llist_a_llist_fun$ A_llist$) A_llist$)
(declare-fun iterates$ (Enat_enat_fun$) Enat_set$)
(declare-fun monotone$ (A_llist_a_llist_bool_fun_fun$ Enat_enat_bool_fun_fun$ A_llist_enat_fun$) Bool)
(declare-fun monotone$a (Enat_enat_bool_fun_fun$ Enat_enat_bool_fun_fun$ Enat_enat_fun$) Bool)
(declare-fun monotone$b (A_llist_a_llist_bool_fun_fun$ A_llist_a_llist_bool_fun_fun$ A_llist_a_llist_fun$) Bool)
(declare-fun finite_lprefix$ () A_llist_a_llist_bool_fun_fun$)
(assert (forall ((?v0 Enat_set$) (?v1 Enat$)) (! (= (fun_app$ (uu$ ?v0) ?v1) (member$ ?v1 ?v0)) :pattern ((fun_app$ (uu$ ?v0) ?v1)))))
(assert (not (fun_app$ (fun_app$a less_eq$ (fun_app$b (llcp$ xs$) ys$)) (fun_app$c (min$ (fun_app$b llength$ xs$)) (fun_app$b llength$ ys$)))))
(assert (forall ((?v0 A_llist$)) (! (= (fun_app$b (llcp$ ?v0) ?v0) (fun_app$b llength$ ?v0)) :pattern ((llcp$ ?v0)))))
(assert (forall ((?v0 A_llist$) (?v1 A_llist$)) (= (fun_app$b (llcp$ ?v0) ?v1) (fun_app$b (llcp$ ?v1) ?v0)) ))
(assert (forall ((?v0 Enat_enat_bool_fun_fun$) (?v1 Enat$) (?v2 Enat$)) (=> (and (forall ((?v3 Enat$) (?v4 Enat$)) (=> (fun_app$ (fun_app$a less_eq$ ?v3) ?v4) (fun_app$ (fun_app$a ?v0 ?v3) ?v4)) ) (=> (fun_app$ (fun_app$a ?v0 ?v1) ?v2) (fun_app$ (fun_app$a ?v0 ?v2) ?v1))) (fun_app$ (fun_app$a ?v0 ?v2) ?v1)) ))
(assert (forall ((?v0 Enat$) (?v1 Enat$) (?v2 Enat$)) (= (fun_app$ (fun_app$a less_eq$ ?v0) (fun_app$c (min$ ?v1) ?v2)) (and (fun_app$ (fun_app$a less_eq$ ?v0) ?v1) (fun_app$ (fun_app$a less_eq$ ?v0) ?v2))) ))
(assert (forall ((?v0 Enat$) (?v1 Enat$)) (= (fun_app$c (min$ (fun_app$c (min$ ?v0) ?v1)) ?v1) (fun_app$c (min$ ?v0) ?v1)) ))
(assert (forall ((?v0 Enat$) (?v1 Enat$)) (= (fun_app$c (min$ ?v0) (fun_app$c (min$ ?v0) ?v1)) (fun_app$c (min$ ?v0) ?v1)) ))
(assert (forall ((?v0 Enat$)) (= (fun_app$c (min$ ?v0) ?v0) ?v0) ))
(assert (forall ((?v0 Enat$)) (fun_app$ (fun_app$a less_eq$ ?v0) ?v0) ))
(assert (forall ((?v0 Enat$) (?v1 Enat$)) (= (fun_app$c (min$ ?v0) ?v1) (ite (fun_app$ (fun_app$a less_eq$ ?v0) ?v1) ?v0 ?v1)) ))
(assert (forall ((?v0 Enat$) (?v1 Enat$) (?v2 Enat$)) (= (fun_app$ (fun_app$a less_eq$ (fun_app$c (min$ ?v0) ?v1)) ?v2) (or (fun_app$ (fun_app$a less_eq$ ?v0) ?v2) (fun_app$ (fun_app$a less_eq$ ?v1) ?v2))) ))
(assert (forall ((?v0 Enat$) (?v1 Enat$)) (! (= (fun_app$ (fun_app$a less_eq$ ?v0) ?v1) (= (fun_app$c (min$ ?v1) ?v0) ?v0)) :pattern ((fun_app$ (fun_app$a less_eq$ ?v0) ?v1)))))
(assert (forall ((?v0 Enat$) (?v1 Enat$)) (! (= (fun_app$ (fun_app$a less_eq$ ?v0) ?v1) (= (fun_app$c (min$ ?v0) ?v1) ?v0)) :pattern ((fun_app$ (fun_app$a less_eq$ ?v0) ?v1)))))
(assert (forall ((?v0 Enat$) (?v1 Enat$)) (! (= (fun_app$ (fun_app$a less_eq$ ?v0) ?v1) (= ?v0 (fun_app$c (min$ ?v0) ?v1))) :pattern ((fun_app$ (fun_app$a less_eq$ ?v0) ?v1)))))
(assert (forall ((?v0 Enat$) (?v1 Enat$)) (=> (= ?v0 (fun_app$c (min$ ?v0) ?v1)) (fun_app$ (fun_app$a less_eq$ ?v0) ?v1)) ))
(assert (forall ((?v0 Enat$) (?v1 Enat$) (?v2 Enat$)) (=> (and (fun_app$ (fun_app$a less_eq$ ?v0) (fun_app$c (min$ ?v1) ?v2)) (=> (and (fun_app$ (fun_app$a less_eq$ ?v0) ?v1) (fun_app$ (fun_app$a less_eq$ ?v0) ?v2)) false)) false) ))
(assert (forall ((?v0 Enat$)) (fun_app$ (fun_app$a less_eq$ ?v0) ?v0) ))
(assert (forall ((?v0 Enat$) (?v1 Enat$)) (or (fun_app$ (fun_app$a less_eq$ ?v0) ?v1) (fun_app$ (fun_app$a less_eq$ ?v1) ?v0)) ))
(assert (forall ((?v0 Enat$) (?v1 Enat$)) (! (=> (fun_app$ (fun_app$a less_eq$ ?v0) ?v1) (= (fun_app$ (fun_app$a less_eq$ ?v1) ?v0) (= ?v1 ?v0))) :pattern ((fun_app$ (fun_app$a less_eq$ ?v1) ?v0)))))
(assert (forall ((?v0 Enat$) (?v1 Enat$) (?v2 Enat$)) (=> (and (fun_app$ (fun_app$a less_eq$ ?v0) ?v1) (fun_app$ (fun_app$a less_eq$ ?v1) ?v2)) (fun_app$ (fun_app$a less_eq$ ?v0) ?v2)) ))
(assert (forall ((?v0 Enat$) (?v1 Enat$) (?v2 Enat$)) (=> (and (fun_app$ (fun_app$a less_eq$ ?v0) ?v1) (fun_app$ (fun_app$a less_eq$ ?v1) ?v2)) (fun_app$ (fun_app$a less_eq$ ?v0) ?v2)) ))
(assert (forall ((?v0 Enat$) (?v1 Enat$) (?v2 Enat$)) (=> (and (fun_app$ (fun_app$a less_eq$ ?v0) ?v1) (fun_app$ (fun_app$a less_eq$ ?v2) ?v0)) (fun_app$ (fun_app$a less_eq$ ?v2) ?v1)) ))
(assert (forall ((?v0 Enat$) (?v1 Enat$)) (=> (and (fun_app$ (fun_app$a less_eq$ ?v0) ?v1) (fun_app$ (fun_app$a less_eq$ ?v1) ?v0)) (= ?v0 ?v1)) ))
(assert (forall ((?v0 Enat$) (?v1 Enat$)) (=> (and (fun_app$ (fun_app$a less_eq$ ?v0) ?v1) (fun_app$ (fun_app$a less_eq$ ?v1) ?v0)) (= ?v0 ?v1)) ))
(assert (forall ((?v0 Enat$) (?v1 Enat$)) (=> (and (fun_app$ (fun_app$a less_eq$ ?v0) ?v1) (fun_app$ (fun_app$a less_eq$ ?v1) ?v0)) (= ?v1 ?v0)) ))
(assert (forall ((?v0 Enat$) (?v1 Enat_enat_fun$) (?v2 Enat$) (?v3 Enat$)) (=> (and (fun_app$ (fun_app$a less_eq$ ?v0) (fun_app$c ?v1 ?v2)) (and (fun_app$ (fun_app$a less_eq$ ?v2) ?v3) (forall ((?v4 Enat$) (?v5 Enat$)) (=> (fun_app$ (fun_app$a less_eq$ ?v4) ?v5) (fun_app$ (fun_app$a less_eq$ (fun_app$c ?v1 ?v4)) (fun_app$c ?v1 ?v5))) ))) (fun_app$ (fun_app$a less_eq$ ?v0) (fun_app$c ?v1 ?v3))) ))
(assert (forall ((?v0 Enat$) (?v1 Enat$) (?v2 Enat_enat_fun$) (?v3 Enat$)) (=> (and (fun_app$ (fun_app$a less_eq$ ?v0) ?v1) (and (fun_app$ (fun_app$a less_eq$ (fun_app$c ?v2 ?v1)) ?v3) (forall ((?v4 Enat$) (?v5 Enat$)) (=> (fun_app$ (fun_app$a less_eq$ ?v4) ?v5) (fun_app$ (fun_app$a less_eq$ (fun_app$c ?v2 ?v4)) (fun_app$c ?v2 ?v5))) ))) (fun_app$ (fun_app$a less_eq$ (fun_app$c ?v2 ?v0)) ?v3)) ))
(assert (forall ((?v0 Enat$) (?v1 Enat$) (?v2 Enat$)) (=> (and (fun_app$ (fun_app$a less_eq$ ?v0) ?v1) (= ?v1 ?v2)) (fun_app$ (fun_app$a less_eq$ ?v0) ?v2)) ))
(assert (forall ((?v0 Enat$) (?v1 Enat$) (?v2 Enat_enat_fun$) (?v3 Enat$)) (=> (and (fun_app$ (fun_app$a less_eq$ ?v0) ?v1) (and (= (fun_app$c ?v2 ?v1) ?v3) (forall ((?v4 Enat$) (?v5 Enat$)) (=> (fun_app$ (fun_app$a less_eq$ ?v4) ?v5) (fun_app$ (fun_app$a less_eq$ (fun_app$c ?v2 ?v4)) (fun_app$c ?v2 ?v5))) ))) (fun_app$ (fun_app$a less_eq$ (fun_app$c ?v2 ?v0)) ?v3)) ))
(assert (forall ((?v0 Enat$) (?v1 Enat$)) (=> (= ?v0 ?v1) (fun_app$ (fun_app$a less_eq$ ?v0) ?v1)) ))
(assert (forall ((?v0 Enat$) (?v1 Enat$) (?v2 Enat$)) (=> (and (= ?v0 ?v1) (fun_app$ (fun_app$a less_eq$ ?v1) ?v2)) (fun_app$ (fun_app$a less_eq$ ?v0) ?v2)) ))
(assert (forall ((?v0 Enat$) (?v1 Enat_enat_fun$) (?v2 Enat$) (?v3 Enat$)) (=> (and (= ?v0 (fun_app$c ?v1 ?v2)) (and (fun_app$ (fun_app$a less_eq$ ?v2) ?v3) (forall ((?v4 Enat$) (?v5 Enat$)) (=> (fun_app$ (fun_app$a less_eq$ ?v4) ?v5) (fun_app$ (fun_app$a less_eq$ (fun_app$c ?v1 ?v4)) (fun_app$c ?v1 ?v5))) ))) (fun_app$ (fun_app$a less_eq$ ?v0) (fun_app$c ?v1 ?v3))) ))
(assert (forall ((?v0 Enat_enat_bool_fun_fun$) (?v1 Enat$) (?v2 Enat$)) (=> (and (forall ((?v3 Enat$) (?v4 Enat$)) (=> (fun_app$ (fun_app$a less_eq$ ?v3) ?v4) (fun_app$ (fun_app$a ?v0 ?v3) ?v4)) ) (forall ((?v3 Enat$) (?v4 Enat$)) (=> (fun_app$ (fun_app$a ?v0 ?v4) ?v3) (fun_app$ (fun_app$a ?v0 ?v3) ?v4)) )) (fun_app$ (fun_app$a ?v0 ?v1) ?v2)) ))
(assert (forall ((?v0 Enat$) (?v1 Enat$)) (=> (and (=> (fun_app$ (fun_app$a less_eq$ ?v0) ?v1) false) (=> (fun_app$ (fun_app$a less_eq$ ?v1) ?v0) false)) false) ))
(assert (forall ((?v0 Enat$) (?v1 Enat$)) (= (= ?v0 ?v1) (and (fun_app$ (fun_app$a less_eq$ ?v0) ?v1) (fun_app$ (fun_app$a less_eq$ ?v1) ?v0))) ))
(assert (forall ((?v0 Enat$) (?v1 Enat$)) (= (fun_app$c (min$ ?v0) ?v1) (fun_app$c (min$ ?v1) ?v0)) ))
(assert (forall ((?v0 Enat$) (?v1 Enat$) (?v2 Enat$)) (= (fun_app$c (min$ ?v0) (fun_app$c (min$ ?v1) ?v2)) (fun_app$c (min$ ?v1) (fun_app$c (min$ ?v0) ?v2))) ))
(assert (forall ((?v0 Enat$) (?v1 Enat$) (?v2 Enat$)) (= (fun_app$c (min$ (fun_app$c (min$ ?v0) ?v1)) ?v2) (fun_app$c (min$ ?v0) (fun_app$c (min$ ?v1) ?v2))) ))
(assert (forall ((?v0 Enat$) (?v1 Enat$)) (fun_app$ (fun_app$a less_eq$ (fun_app$c (min$ ?v0) ?v1)) ?v0) ))
(assert (forall ((?v0 Enat$) (?v1 Enat$)) (fun_app$ (fun_app$a less_eq$ (fun_app$c (min$ ?v0) ?v1)) ?v1) ))
(assert (forall ((?v0 Enat$) (?v1 Enat$) (?v2 Enat$)) (=> (fun_app$ (fun_app$a less_eq$ ?v0) ?v1) (fun_app$ (fun_app$a less_eq$ (fun_app$c (min$ ?v0) ?v2)) ?v1)) ))
(assert (forall ((?v0 Enat$) (?v1 Enat$) (?v2 Enat$)) (=> (fun_app$ (fun_app$a less_eq$ ?v0) ?v1) (fun_app$ (fun_app$a less_eq$ (fun_app$c (min$ ?v2) ?v0)) ?v1)) ))
(assert (forall ((?v0 Enat_bool_fun$) (?v1 Enat_bool_fun$)) (=> (forall ((?v2 Enat$)) (= (fun_app$ ?v0 ?v2) (fun_app$ ?v1 ?v2)) ) (= (collect$ ?v0) (collect$ ?v1))) ))
(assert (forall ((?v0 Enat_set$)) (= (collect$ (uu$ ?v0)) ?v0) ))
(assert (forall ((?v0 Enat$) (?v1 Enat_bool_fun$)) (= (member$ ?v0 (collect$ ?v1)) (fun_app$ ?v1 ?v0)) ))
(assert (forall ((?v0 Enat$) (?v1 Enat$)) (=> (fun_app$ (fun_app$a less_eq$ ?v0) ?v1) (= (fun_app$c (min$ ?v0) ?v1) ?v0)) ))
(assert (forall ((?v0 Enat$) (?v1 Enat$)) (=> (fun_app$ (fun_app$a less_eq$ ?v0) ?v1) (= (fun_app$c (min$ ?v1) ?v0) ?v0)) ))
(assert (forall ((?v0 Enat$) (?v1 Enat$)) (=> (fun_app$ (fun_app$a less_eq$ ?v0) ?v1) (= (fun_app$c (min$ ?v0) ?v1) ?v0)) ))
(assert (forall ((?v0 Enat$) (?v1 Enat$)) (=> (fun_app$ (fun_app$a less_eq$ ?v0) ?v1) (= (fun_app$c (min$ ?v1) ?v0) ?v0)) ))
(assert (forall ((?v0 Enat$) (?v1 Enat$) (?v2 Enat$)) (=> (and (fun_app$ (fun_app$a less_eq$ ?v0) ?v1) (fun_app$ (fun_app$a less_eq$ ?v0) ?v2)) (fun_app$ (fun_app$a less_eq$ ?v0) (fun_app$c (min$ ?v1) ?v2))) ))
(assert (forall ((?v0 Enat$) (?v1 Enat$) (?v2 Enat$) (?v3 Enat$)) (=> (and (fun_app$ (fun_app$a less_eq$ ?v0) ?v1) (fun_app$ (fun_app$a less_eq$ ?v2) ?v3)) (fun_app$ (fun_app$a less_eq$ (fun_app$c (min$ ?v0) ?v2)) (fun_app$c (min$ ?v1) ?v3))) ))
(assert (forall ((?v0 Enat$) (?v1 Enat$)) (=> (and (fun_app$ (fun_app$a less_eq$ ?v0) ?v1) (=> (= ?v0 (fun_app$c (min$ ?v0) ?v1)) false)) false) ))
(assert (forall ((?v0 Enat$)) (fun_app$ (fun_app$a less_eq$ ?v0) ?v0) ))
(assert (forall ((?v0 Enat$) (?v1 Enat$) (?v2 Enat$)) (=> (and (fun_app$ (fun_app$a less_eq$ ?v0) ?v1) (fun_app$ (fun_app$a less_eq$ ?v2) ?v0)) (fun_app$ (fun_app$a less_eq$ ?v2) ?v1)) ))
(assert (forall ((?v0 Enat$) (?v1 Enat$) (?v2 Enat$)) (=> (and (fun_app$ (fun_app$a less_eq$ ?v0) ?v1) (fun_app$ (fun_app$a less_eq$ ?v1) ?v2)) (fun_app$ (fun_app$a less_eq$ ?v0) ?v2)) ))
(assert (forall ((?v0 Enat$) (?v1 Enat$)) (=> (and (fun_app$ (fun_app$a less_eq$ ?v0) ?v1) (fun_app$ (fun_app$a less_eq$ ?v1) ?v0)) (= ?v1 ?v0)) ))
(assert (forall ((?v0 Enat$) (?v1 Enat$)) (=> (and (fun_app$ (fun_app$a less_eq$ ?v0) ?v1) (fun_app$ (fun_app$a less_eq$ ?v1) ?v0)) (= ?v0 ?v1)) ))
(assert (forall ((?v0 A_llist$) (?v1 A_llist$)) (! (=> (fun_app$d (fun_app$e lprefix$ ?v0) ?v1) (= (fun_app$b (llcp$ ?v0) ?v1) (fun_app$b llength$ ?v0))) :pattern ((fun_app$b (llcp$ ?v0) ?v1)))))
(assert (forall ((?v0 A_llist$) (?v1 A_llist$)) (! (=> (fun_app$d (fun_app$e lprefix$ ?v0) ?v1) (= (fun_app$b (llcp$ ?v1) ?v0) (fun_app$b llength$ ?v0))) :pattern ((fun_app$b (llcp$ ?v1) ?v0)))))
(assert (forall ((?v0 Enat$) (?v1 A_llist$)) (= (fun_app$b llength$ (fun_app$f (ltake$ ?v0) ?v1)) (fun_app$c (min$ ?v0) (fun_app$b llength$ ?v1))) ))
(assert (forall ((?v0 A_llist$) (?v1 A_llist$)) (=> (fun_app$d (fun_app$e lprefix$ ?v0) ?v1) (fun_app$ (fun_app$a less_eq$ (fun_app$b llength$ ?v0)) (fun_app$b llength$ ?v1))) ))
(assert (forall ((?v0 A_llist$) (?v1 Enat$)) (! (=> (fun_app$ (fun_app$a less_eq$ (fun_app$b llength$ ?v0)) ?v1) (= (fun_app$f (ltake$ ?v1) ?v0) ?v0)) :pattern ((fun_app$f (ltake$ ?v1) ?v0)))))
(assert (forall ((?v0 A_llist$)) (fun_app$d (fun_app$e lprefix$ ?v0) ?v0) ))
(assert (forall ((?v0 A_llist$)) (fun_app$d (fun_app$e lprefix$ ?v0) ?v0) ))
(assert (forall ((?v0 Enat$) (?v1 A_llist$)) (fun_app$d (fun_app$e lprefix$ (fun_app$f (ltake$ ?v0) ?v1)) ?v1) ))
(assert (forall ((?v0 Enat$) (?v1 Enat$) (?v2 A_llist$)) (= (fun_app$f (ltake$ ?v0) (fun_app$f (ltake$ ?v1) ?v2)) (fun_app$f (ltake$ (fun_app$c (min$ ?v0) ?v1)) ?v2)) ))
(assert (forall ((?v0 Enat$) (?v1 A_llist$) (?v2 Enat$)) (= (fun_app$d (fun_app$e lprefix$ (fun_app$f (ltake$ ?v0) ?v1)) (fun_app$f (ltake$ ?v2) ?v1)) (or (fun_app$ (fun_app$a less_eq$ ?v0) ?v2) (fun_app$ (fun_app$a less_eq$ (fun_app$b llength$ ?v1)) ?v2))) ))
(assert (forall ((?v0 A_llist$) (?v1 A_llist$) (?v2 A_llist$)) (=> (and (fun_app$d (fun_app$e lprefix$ ?v0) ?v1) (fun_app$d (fun_app$e lprefix$ ?v1) ?v2)) (fun_app$d (fun_app$e lprefix$ ?v0) ?v2)) ))
(assert (forall ((?v0 A_llist$) (?v1 A_llist$) (?v2 A_llist$)) (=> (and (fun_app$d (fun_app$e lprefix$ ?v0) ?v1) (fun_app$d (fun_app$e lprefix$ ?v1) ?v2)) (fun_app$d (fun_app$e lprefix$ ?v0) ?v2)) ))
(assert (forall ((?v0 A_llist$) (?v1 A_llist$) (?v2 A_llist$)) (=> (and (fun_app$d (fun_app$e lprefix$ ?v0) ?v1) (fun_app$d (fun_app$e lprefix$ ?v2) ?v1)) (or (fun_app$d (fun_app$e lprefix$ ?v0) ?v2) (fun_app$d (fun_app$e lprefix$ ?v2) ?v0))) ))
(assert (forall ((?v0 A_llist$) (?v1 A_llist$)) (=> (and (fun_app$d (fun_app$e lprefix$ ?v0) ?v1) (fun_app$d (fun_app$e lprefix$ ?v1) ?v0)) (= ?v0 ?v1)) ))
(assert (forall ((?v0 A_llist$) (?v1 A_llist$)) (=> (and (fun_app$d (fun_app$e lprefix$ ?v0) ?v1) (fun_app$d (fun_app$e lprefix$ ?v1) ?v0)) (= ?v0 ?v1)) ))
(assert (forall ((?v0 Enat$) (?v1 A_llist$) (?v2 A_llist$) (?v3 Enat$)) (=> (and (= (fun_app$f (ltake$ ?v0) ?v1) (fun_app$f (ltake$ ?v0) ?v2)) (fun_app$ (fun_app$a less_eq$ ?v3) ?v0)) (= (fun_app$f (ltake$ ?v3) ?v1) (fun_app$f (ltake$ ?v3) ?v2))) ))
(assert (forall ((?v0 A_llist$) (?v1 A_llist$)) (=> (and (fun_app$d (fun_app$e lprefix$ ?v0) ?v1) (= (fun_app$b llength$ ?v0) (fun_app$b llength$ ?v1))) (= ?v0 ?v1)) ))
(assert (forall ((?v0 Enat$) (?v1 A_llist$) (?v2 A_llist$)) (=> (fun_app$ (fun_app$a less_eq$ ?v0) (fun_app$b llength$ ?v1)) (= (fun_app$f (ltake$ ?v0) (fun_app$f (lappend$ ?v1) ?v2)) (fun_app$f (ltake$ ?v0) ?v1))) ))
(assert (monotone$ lprefix$ less_eq$ llength$))
(assert (= finite_lprefix$ lprefix$))
(assert (forall ((?v0 Enat_enat_fun$)) (= (antimono$ ?v0) (forall ((?v1 Enat$) (?v2 Enat$)) (=> (fun_app$ (fun_app$a less_eq$ ?v1) ?v2) (fun_app$ (fun_app$a less_eq$ (fun_app$c ?v0 ?v2)) (fun_app$c ?v0 ?v1))) )) ))
(assert (forall ((?v0 Enat_enat_fun$)) (=> (forall ((?v1 Enat$) (?v2 Enat$)) (=> (fun_app$ (fun_app$a less_eq$ ?v1) ?v2) (fun_app$ (fun_app$a less_eq$ (fun_app$c ?v0 ?v2)) (fun_app$c ?v0 ?v1))) ) (antimono$ ?v0)) ))
(assert (forall ((?v0 Enat_enat_fun$) (?v1 Enat$) (?v2 Enat$)) (=> (and (antimono$ ?v0) (and (fun_app$ (fun_app$a less_eq$ ?v1) ?v2) (=> (fun_app$ (fun_app$a less_eq$ (fun_app$c ?v0 ?v2)) (fun_app$c ?v0 ?v1)) false))) false) ))
(assert (forall ((?v0 Enat_enat_fun$) (?v1 Enat$) (?v2 Enat$)) (=> (and (antimono$ ?v0) (fun_app$ (fun_app$a less_eq$ ?v1) ?v2)) (fun_app$ (fun_app$a less_eq$ (fun_app$c ?v0 ?v2)) (fun_app$c ?v0 ?v1))) ))
(assert (forall ((?v0 A_llist$) (?v1 A_llist$) (?v2 A_llist$)) (= (fun_app$f (lappend$ (fun_app$f (lappend$ ?v0) ?v1)) ?v2) (fun_app$f (lappend$ ?v0) (fun_app$f (lappend$ ?v1) ?v2))) ))
(assert (forall ((?v0 Enat_enat_fun$) (?v1 Enat$) (?v2 Enat$) (?v3 Enat_enat_fun$) (?v4 Enat_enat_bool_fun_fun$)) (=> (and (forall ((?v5 Enat$)) (= (fun_app$c ?v0 ?v5) (ite (fun_app$ (fun_app$a less_eq$ ?v5) ?v1) ?v2 (fun_app$c ?v3 ?v5))) ) (and (forall ((?v5 Enat$) (?v6 Enat$)) (=> (and (fun_app$ (fun_app$a less_eq$ ?v5) ?v6) (not (fun_app$ (fun_app$a less_eq$ ?v5) ?v1))) (fun_app$ (fun_app$a ?v4 (fun_app$c ?v3 ?v5)) (fun_app$c ?v3 ?v6))) ) (and (forall ((?v5 Enat$)) (=> (not (fun_app$ (fun_app$a less_eq$ ?v5) ?v1)) (fun_app$ (fun_app$a ?v4 ?v2) (fun_app$c ?v3 ?v5))) ) (fun_app$ (fun_app$a ?v4 ?v2) ?v2)))) (monotone$a less_eq$ ?v4 ?v0)) ))
(assert (forall ((?v0 A_llist_a_llist_fun$) (?v1 A_llist$) (?v2 A_llist$) (?v3 A_llist_a_llist_fun$) (?v4 A_llist_a_llist_bool_fun_fun$)) (=> (and (forall ((?v5 A_llist$)) (= (fun_app$f ?v0 ?v5) (ite (fun_app$d (fun_app$e lprefix$ ?v5) ?v1) ?v2 (fun_app$f ?v3 ?v5))) ) (and (forall ((?v5 A_llist$) (?v6 A_llist$)) (=> (and (fun_app$d (fun_app$e lprefix$ ?v5) ?v6) (not (fun_app$d (fun_app$e lprefix$ ?v5) ?v1))) (fun_app$d (fun_app$e ?v4 (fun_app$f ?v3 ?v5)) (fun_app$f ?v3 ?v6))) ) (and (forall ((?v5 A_llist$)) (=> (not (fun_app$d (fun_app$e lprefix$ ?v5) ?v1)) (fun_app$d (fun_app$e ?v4 ?v2) (fun_app$f ?v3 ?v5))) ) (fun_app$d (fun_app$e ?v4 ?v2) ?v2)))) (monotone$b lprefix$ ?v4 ?v0)) ))
(assert (forall ((?v0 A_llist_enat_fun$) (?v1 A_llist$) (?v2 Enat$) (?v3 A_llist_enat_fun$) (?v4 Enat_enat_bool_fun_fun$)) (=> (and (forall ((?v5 A_llist$)) (= (fun_app$b ?v0 ?v5) (ite (fun_app$d (fun_app$e lprefix$ ?v5) ?v1) ?v2 (fun_app$b ?v3 ?v5))) ) (and (forall ((?v5 A_llist$) (?v6 A_llist$)) (=> (and (fun_app$d (fun_app$e lprefix$ ?v5) ?v6) (not (fun_app$d (fun_app$e lprefix$ ?v5) ?v1))) (fun_app$ (fun_app$a ?v4 (fun_app$b ?v3 ?v5)) (fun_app$b ?v3 ?v6))) ) (and (forall ((?v5 A_llist$)) (=> (not (fun_app$d (fun_app$e lprefix$ ?v5) ?v1)) (fun_app$ (fun_app$a ?v4 ?v2) (fun_app$b ?v3 ?v5))) ) (fun_app$ (fun_app$a ?v4 ?v2) ?v2)))) (monotone$ lprefix$ ?v4 ?v0)) ))
(assert (forall ((?v0 A_llist$) (?v1 A_llist$)) (= (fun_app$d (fun_app$e lprefix$ ?v0) ?v1) (exists ((?v2 A_llist$)) (= ?v1 (fun_app$f (lappend$ ?v0) ?v2)) )) ))
(assert (forall ((?v0 A_llist$) (?v1 A_llist$) (?v2 A_llist$)) (=> (and (fun_app$d (fun_app$e lprefix$ (fun_app$f (lappend$ ?v0) ?v1)) ?v2) (forall ((?v3 A_llist$)) (=> (= ?v2 (fun_app$f (lappend$ ?v0) ?v3)) false) )) false) ))
(assert (forall ((?v0 A_llist$) (?v1 A_llist$) (?v2 A_llist$)) (=> (fun_app$d (fun_app$e lprefix$ ?v0) (fun_app$f (lappend$ ?v1) ?v2)) (or (fun_app$d (fun_app$e lprefix$ ?v0) ?v1) (fun_app$d (fun_app$e lprefix$ ?v1) ?v0))) ))
(assert (forall ((?v0 A_llist$) (?v1 A_llist$) (?v2 A_llist$)) (=> (fun_app$d (fun_app$e lprefix$ ?v0) ?v1) (fun_app$d (fun_app$e lprefix$ (fun_app$f (lappend$ ?v2) ?v0)) (fun_app$f (lappend$ ?v2) ?v1))) ))
(assert (forall ((?v0 A_llist$) (?v1 A_llist$)) (fun_app$d (fun_app$e lprefix$ ?v0) (fun_app$f (lappend$ ?v0) ?v1)) ))
(assert (forall ((?v0 A_llist$) (?v1 Enat$) (?v2 A_llist$)) (=> (fun_app$ (fun_app$a less_eq$ (fun_app$b llength$ ?v0)) ?v1) (= (fun_app$f (ltake$ ?v1) (fun_app$f (lappend$ ?v0) ?v2)) (fun_app$f (lappend$ ?v0) (fun_app$f (ltake$ (fun_app$c (minus$ ?v1) (fun_app$b llength$ ?v0))) ?v2)))) ))
(assert (forall ((?v0 A_llist$) (?v1 A_llist$) (?v2 A_llist$)) (= (fun_app$b (llcp$ (fun_app$f (lappend$ ?v0) ?v1)) (fun_app$f (lappend$ ?v0) ?v2)) (fun_app$c (plus$ (fun_app$b llength$ ?v0)) (fun_app$b (llcp$ ?v1) ?v2))) ))
(assert (forall ((?v0 A_llist_a_llist_bool_fun_fun$) (?v1 A_llist_a_llist_bool_fun_fun$) (?v2 A_llist_a_llist_fun$)) (= (monotone$b ?v0 ?v1 ?v2) (forall ((?v3 A_llist$) (?v4 A_llist$)) (=> (fun_app$d (fun_app$e ?v0 ?v3) ?v4) (fun_app$d (fun_app$e ?v1 (fun_app$f ?v2 ?v3)) (fun_app$f ?v2 ?v4))) )) ))
(assert (forall ((?v0 A_llist_a_llist_bool_fun_fun$) (?v1 Enat_enat_bool_fun_fun$) (?v2 A_llist_enat_fun$)) (= (monotone$ ?v0 ?v1 ?v2) (forall ((?v3 A_llist$) (?v4 A_llist$)) (=> (fun_app$d (fun_app$e ?v0 ?v3) ?v4) (fun_app$ (fun_app$a ?v1 (fun_app$b ?v2 ?v3)) (fun_app$b ?v2 ?v4))) )) ))
(assert (forall ((?v0 Enat_enat_bool_fun_fun$) (?v1 Enat_enat_bool_fun_fun$) (?v2 Enat_enat_fun$)) (= (monotone$a ?v0 ?v1 ?v2) (forall ((?v3 Enat$) (?v4 Enat$)) (=> (fun_app$ (fun_app$a ?v0 ?v3) ?v4) (fun_app$ (fun_app$a ?v1 (fun_app$c ?v2 ?v3)) (fun_app$c ?v2 ?v4))) )) ))
(assert (forall ((?v0 A_llist_a_llist_bool_fun_fun$) (?v1 A_llist_a_llist_bool_fun_fun$) (?v2 A_llist_a_llist_fun$)) (=> (forall ((?v3 A_llist$) (?v4 A_llist$)) (=> (fun_app$d (fun_app$e ?v0 ?v3) ?v4) (fun_app$d (fun_app$e ?v1 (fun_app$f ?v2 ?v3)) (fun_app$f ?v2 ?v4))) ) (monotone$b ?v0 ?v1 ?v2)) ))
(assert (forall ((?v0 A_llist_a_llist_bool_fun_fun$) (?v1 Enat_enat_bool_fun_fun$) (?v2 A_llist_enat_fun$)) (=> (forall ((?v3 A_llist$) (?v4 A_llist$)) (=> (fun_app$d (fun_app$e ?v0 ?v3) ?v4) (fun_app$ (fun_app$a ?v1 (fun_app$b ?v2 ?v3)) (fun_app$b ?v2 ?v4))) ) (monotone$ ?v0 ?v1 ?v2)) ))
(assert (forall ((?v0 Enat_enat_bool_fun_fun$) (?v1 Enat_enat_bool_fun_fun$) (?v2 Enat_enat_fun$)) (=> (forall ((?v3 Enat$) (?v4 Enat$)) (=> (fun_app$ (fun_app$a ?v0 ?v3) ?v4) (fun_app$ (fun_app$a ?v1 (fun_app$c ?v2 ?v3)) (fun_app$c ?v2 ?v4))) ) (monotone$a ?v0 ?v1 ?v2)) ))
(assert (forall ((?v0 A_llist_a_llist_bool_fun_fun$) (?v1 A_llist_a_llist_bool_fun_fun$) (?v2 A_llist_a_llist_fun$) (?v3 A_llist$) (?v4 A_llist$)) (=> (and (monotone$b ?v0 ?v1 ?v2) (fun_app$d (fun_app$e ?v0 ?v3) ?v4)) (fun_app$d (fun_app$e ?v1 (fun_app$f ?v2 ?v3)) (fun_app$f ?v2 ?v4))) ))
(assert (forall ((?v0 A_llist_a_llist_bool_fun_fun$) (?v1 Enat_enat_bool_fun_fun$) (?v2 A_llist_enat_fun$) (?v3 A_llist$) (?v4 A_llist$)) (=> (and (monotone$ ?v0 ?v1 ?v2) (fun_app$d (fun_app$e ?v0 ?v3) ?v4)) (fun_app$ (fun_app$a ?v1 (fun_app$b ?v2 ?v3)) (fun_app$b ?v2 ?v4))) ))
(assert (forall ((?v0 Enat_enat_bool_fun_fun$) (?v1 Enat_enat_bool_fun_fun$) (?v2 Enat_enat_fun$) (?v3 Enat$) (?v4 Enat$)) (=> (and (monotone$a ?v0 ?v1 ?v2) (fun_app$ (fun_app$a ?v0 ?v3) ?v4)) (fun_app$ (fun_app$a ?v1 (fun_app$c ?v2 ?v3)) (fun_app$c ?v2 ?v4))) ))
(assert (forall ((?v0 Enat$) (?v1 A_llist$) (?v2 A_llist$)) (= (fun_app$f (ltake$ ?v0) (fun_app$f (lappend$ ?v1) ?v2)) (fun_app$f (lappend$ (fun_app$f (ltake$ ?v0) ?v1)) (fun_app$f (ltake$ (fun_app$c (minus$ ?v0) (fun_app$b llength$ ?v1))) ?v2))) ))
(assert (forall ((?v0 A_llist$) (?v1 A_llist$)) (= (fun_app$b llength$ (fun_app$f (lappend$ ?v0) ?v1)) (fun_app$c (plus$ (fun_app$b llength$ ?v0)) (fun_app$b llength$ ?v1))) ))
(assert (forall ((?v0 A_llist$)) (monotone$b lprefix$ lprefix$ (lappend$ ?v0)) ))
(assert (forall ((?v0 Enat$)) (monotone$b lprefix$ lprefix$ (ltake$ ?v0)) ))
(assert (forall ((?v0 Enat$) (?v1 Enat$) (?v2 Enat$)) (= (fun_app$c (plus$ (fun_app$c (plus$ ?v0) ?v1)) ?v2) (fun_app$c (plus$ ?v0) (fun_app$c (plus$ ?v1) ?v2))) ))
(assert (forall ((?v0 Enat$) (?v1 Enat$) (?v2 Enat$)) (= (fun_app$c (plus$ (fun_app$c (plus$ ?v0) ?v1)) ?v2) (fun_app$c (plus$ ?v0) (fun_app$c (plus$ ?v1) ?v2))) ))
(assert (forall ((?v0 Enat$) (?v1 Enat$) (?v2 Enat$)) (= (fun_app$c (plus$ ?v0) (fun_app$c (plus$ ?v1) ?v2)) (fun_app$c (plus$ ?v1) (fun_app$c (plus$ ?v0) ?v2))) ))
(assert (forall ((?v0 Enat$) (?v1 Enat$)) (= (fun_app$c (plus$ ?v0) ?v1) (fun_app$c (plus$ ?v1) ?v0)) ))
(assert (forall ((?v0 Enat$) (?v1 Enat$) (?v2 Enat$) (?v3 Enat$)) (=> (and (= ?v0 ?v1) (= ?v2 ?v3)) (= (fun_app$c (plus$ ?v0) ?v2) (fun_app$c (plus$ ?v1) ?v3))) ))
(assert (forall ((?v0 Enat$) (?v1 Enat$) (?v2 Enat$) (?v3 Enat$)) (=> (and (= ?v0 ?v1) (fun_app$ (fun_app$a less_eq$ ?v2) ?v3)) (fun_app$ (fun_app$a less_eq$ (fun_app$c (plus$ ?v0) ?v2)) (fun_app$c (plus$ ?v1) ?v3))) ))
(assert (forall ((?v0 Enat$) (?v1 Enat$) (?v2 Enat$) (?v3 Enat$)) (=> (and (fun_app$ (fun_app$a less_eq$ ?v0) ?v1) (= ?v2 ?v3)) (fun_app$ (fun_app$a less_eq$ (fun_app$c (plus$ ?v0) ?v2)) (fun_app$c (plus$ ?v1) ?v3))) ))
(assert (forall ((?v0 Enat$) (?v1 Enat$) (?v2 Enat$) (?v3 Enat$)) (=> (and (fun_app$ (fun_app$a less_eq$ ?v0) ?v1) (fun_app$ (fun_app$a less_eq$ ?v2) ?v3)) (fun_app$ (fun_app$a less_eq$ (fun_app$c (plus$ ?v0) ?v2)) (fun_app$c (plus$ ?v1) ?v3))) ))
(assert (forall ((?v0 Enat$) (?v1 Enat$) (?v2 Enat$) (?v3 Enat$)) (=> (and (fun_app$ (fun_app$a less_eq$ ?v0) ?v1) (fun_app$ (fun_app$a less_eq$ ?v2) ?v3)) (fun_app$ (fun_app$a less_eq$ (fun_app$c (plus$ ?v0) ?v2)) (fun_app$c (plus$ ?v1) ?v3))) ))
(assert (forall ((?v0 Enat$) (?v1 Enat$) (?v2 Enat$)) (=> (fun_app$ (fun_app$a less_eq$ ?v0) ?v1) (fun_app$ (fun_app$a less_eq$ (fun_app$c (plus$ ?v0) ?v2)) (fun_app$c (plus$ ?v1) ?v2))) ))
(assert (forall ((?v0 Enat$) (?v1 Enat$) (?v2 Enat$)) (=> (fun_app$ (fun_app$a less_eq$ ?v0) ?v1) (fun_app$ (fun_app$a less_eq$ (fun_app$c (plus$ ?v2) ?v0)) (fun_app$c (plus$ ?v2) ?v1))) ))
(assert (forall ((?v0 Enat$) (?v1 Enat$) (?v2 Enat$)) (=> (and (fun_app$ (fun_app$a less_eq$ ?v0) ?v1) (fun_app$ (fun_app$a less_eq$ ?v0) ?v2)) (= (= (fun_app$c (minus$ ?v1) ?v0) (fun_app$c (minus$ ?v2) ?v0)) (= ?v1 ?v2))) ))
(assert (forall ((?v0 Enat$) (?v1 Enat$) (?v2 Enat$)) (=> (fun_app$ (fun_app$a less_eq$ ?v0) ?v1) (fun_app$ (fun_app$a less_eq$ (fun_app$c (minus$ ?v0) ?v2)) (fun_app$c (minus$ ?v1) ?v2))) ))
(assert (forall ((?v0 Enat$) (?v1 Enat$)) (fun_app$ (fun_app$a less_eq$ ?v0) (fun_app$c (plus$ ?v0) ?v1)) ))
(assert (forall ((?v0 Enat$) (?v1 Enat$)) (fun_app$ (fun_app$a less_eq$ ?v0) (fun_app$c (plus$ ?v1) ?v0)) ))
(assert (forall ((?v0 Enat$) (?v1 Enat$) (?v2 A_llist$)) (= (fun_app$f (ltake$ (fun_app$c (plus$ ?v0) ?v1)) ?v2) (fun_app$f (lappend$ (fun_app$f (ltake$ ?v0) ?v2)) (fun_app$f (ltake$ ?v1) (fun_app$f (ldrop$ ?v0) ?v2)))) ))
(assert (forall ((?v0 Enat_enat_fun$)) (! (=> (monotone$a less_eq$ less_eq$ ?v0) (= (fixp$ ?v0) (fun_app$c ?v0 (fixp$ ?v0)))) :pattern ((fixp$ ?v0)))))
(assert (forall ((?v0 Enat$) (?v1 Enat$) (?v2 A_llist$)) (= (fun_app$f (ldrop$ ?v0) (fun_app$f (ldrop$ ?v1) ?v2)) (fun_app$f (ldrop$ (fun_app$c (plus$ ?v0) ?v1)) ?v2)) ))
(assert (forall ((?v0 Enat$) (?v1 A_llist$)) (= (fun_app$f (lappend$ (fun_app$f (ltake$ ?v0) ?v1)) (fun_app$f (ldrop$ ?v0) ?v1)) ?v1) ))
(assert (forall ((?v0 Enat$) (?v1 Enat$) (?v2 A_llist$)) (= (fun_app$f (ltake$ ?v0) (fun_app$f (ldrop$ ?v1) ?v2)) (fun_app$f (ldrop$ ?v1) (fun_app$f (ltake$ (fun_app$c (plus$ ?v0) ?v1)) ?v2))) ))
(assert (forall ((?v0 Enat$) (?v1 Enat$) (?v2 A_llist$)) (= (fun_app$f (ldrop$ ?v0) (fun_app$f (ltake$ ?v1) ?v2)) (fun_app$f (ltake$ (fun_app$c (minus$ ?v1) ?v0)) (fun_app$f (ldrop$ ?v0) ?v2))) ))
(assert (forall ((?v0 Enat$)) (monotone$b lprefix$ lprefix$ (ldrop$ ?v0)) ))
(assert (forall ((?v0 Enat_enat_fun$) (?v1 Enat$)) (=> (and (monotone$a less_eq$ less_eq$ ?v0) (fun_app$ (fun_app$a less_eq$ (fun_app$c ?v0 ?v1)) ?v1)) (fun_app$ (fun_app$a less_eq$ (fixp$ ?v0)) ?v1)) ))
(assert (forall ((?v0 Enat_enat_fun$)) (=> (monotone$a less_eq$ less_eq$ ?v0) (member$ (fixp$ ?v0) (iterates$ ?v0))) ))
(assert (forall ((?v0 Enat$) (?v1 A_llist$) (?v2 A_llist$)) (= (fun_app$f (ldrop$ ?v0) (fun_app$f (lappend$ ?v1) ?v2)) (ite (fun_app$ (less$ ?v0) (fun_app$b llength$ ?v1)) (fun_app$f (lappend$ (fun_app$f (ldrop$ ?v0) ?v1)) ?v2) (fun_app$f (ldrop$ (fun_app$c (minus$ ?v0) (fun_app$b llength$ ?v1))) ?v2))) ))
(assert (forall ((?v0 Enat$) (?v1 A_llist$)) (= (= (fun_app$f (ldrop$ ?v0) ?v1) lNil$) (fun_app$ (fun_app$a less_eq$ (fun_app$b llength$ ?v1)) ?v0)) ))
(assert (forall ((?v0 Enat$) (?v1 Enat$) (?v2 Enat$)) (= (fun_app$ (less$ ?v0) (fun_app$c (min$ ?v1) ?v2)) (and (fun_app$ (less$ ?v0) ?v1) (fun_app$ (less$ ?v0) ?v2))) ))
(assert (forall ((?v0 A_llist$)) (! (= (fun_app$d (fun_app$e lprefix$ lNil$) ?v0) true) :pattern ((fun_app$d (fun_app$e lprefix$ lNil$) ?v0)))))
(assert (forall ((?v0 A_llist$)) (! (= (fun_app$f (lappend$ ?v0) lNil$) ?v0) :pattern ((lappend$ ?v0)))))
(assert (forall ((?v0 A_llist$)) (! (= (fun_app$f (lappend$ lNil$) ?v0) ?v0) :pattern ((fun_app$f (lappend$ lNil$) ?v0)))))
(assert (forall ((?v0 Enat$)) (! (= (fun_app$f (ltake$ ?v0) lNil$) lNil$) :pattern ((ltake$ ?v0)))))
(assert (forall ((?v0 Enat$)) (! (= (fun_app$f (ldrop$ ?v0) lNil$) lNil$) :pattern ((ldrop$ ?v0)))))
(assert (forall ((?v0 Enat$) (?v1 Enat$)) (or (fun_app$ (fun_app$a less_eq$ ?v0) ?v1) (fun_app$ (less$ ?v1) ?v0)) ))
(assert (forall ((?v0 Enat$) (?v1 Enat$)) (=> (not (fun_app$ (fun_app$a less_eq$ ?v0) ?v1)) (fun_app$ (less$ ?v1) ?v0)) ))
(assert (forall ((?v0 Enat$) (?v1 Enat$)) (=> (not (fun_app$ (less$ ?v0) ?v1)) (fun_app$ (fun_app$a less_eq$ ?v1) ?v0)) ))
(assert (forall ((?v0 Enat$) (?v1 Enat$)) (! (=> (not (fun_app$ (less$ ?v0) ?v1)) (= (fun_app$ (fun_app$a less_eq$ ?v0) ?v1) (= ?v0 ?v1))) :pattern ((fun_app$ (fun_app$a less_eq$ ?v0) ?v1)))))
(assert (forall ((?v0 Enat$) (?v1 Enat$)) (=> (and (not (= ?v0 ?v1)) (fun_app$ (fun_app$a less_eq$ ?v0) ?v1)) (fun_app$ (less$ ?v0) ?v1)) ))
(assert (forall ((?v0 Enat$) (?v1 Enat$)) (=> (fun_app$ (fun_app$a less_eq$ ?v0) ?v1) (not (fun_app$ (less$ ?v1) ?v0))) ))
(assert (forall ((?v0 Enat$) (?v1 Enat$)) (=> (fun_app$ (fun_app$a less_eq$ ?v0) ?v1) (or (fun_app$ (less$ ?v0) ?v1) (= ?v0 ?v1))) ))
(assert (forall ((?v0 Enat$) (?v1 Enat$)) (=> (fun_app$ (fun_app$a less_eq$ ?v0) ?v1) (= (not (fun_app$ (less$ ?v0) ?v1)) (= ?v0 ?v1))) ))
(assert (forall ((?v0 Enat$) (?v1 Enat$)) (=> (and (fun_app$ (fun_app$a less_eq$ ?v0) ?v1) (not (= ?v0 ?v1))) (fun_app$ (less$ ?v0) ?v1)) ))
(assert (forall ((?v0 Enat$) (?v1 Enat$) (?v2 Enat$)) (=> (and (fun_app$ (fun_app$a less_eq$ ?v0) ?v1) (fun_app$ (less$ ?v1) ?v2)) (fun_app$ (less$ ?v0) ?v2)) ))
(assert (forall ((?v0 Enat$) (?v1 Enat$) (?v2 Enat$)) (=> (and (fun_app$ (fun_app$a less_eq$ ?v0) ?v1) (fun_app$ (less$ ?v1) ?v2)) (fun_app$ (less$ ?v0) ?v2)) ))
(assert (forall ((?v0 Enat$) (?v1 Enat$) (?v2 Enat$)) (=> (and (fun_app$ (fun_app$a less_eq$ ?v0) ?v1) (fun_app$ (less$ ?v2) ?v0)) (fun_app$ (less$ ?v2) ?v1)) ))
(assert (forall ((?v0 Enat$) (?v1 Enat_enat_fun$) (?v2 Enat$) (?v3 Enat$)) (=> (and (fun_app$ (fun_app$a less_eq$ ?v0) (fun_app$c ?v1 ?v2)) (and (fun_app$ (less$ ?v2) ?v3) (forall ((?v4 Enat$) (?v5 Enat$)) (=> (fun_app$ (less$ ?v4) ?v5) (fun_app$ (less$ (fun_app$c ?v1 ?v4)) (fun_app$c ?v1 ?v5))) ))) (fun_app$ (less$ ?v0) (fun_app$c ?v1 ?v3))) ))
(assert (forall ((?v0 Enat$) (?v1 Enat$) (?v2 Enat_enat_fun$) (?v3 Enat$)) (=> (and (fun_app$ (fun_app$a less_eq$ ?v0) ?v1) (and (fun_app$ (less$ (fun_app$c ?v2 ?v1)) ?v3) (forall ((?v4 Enat$) (?v5 Enat$)) (=> (fun_app$ (fun_app$a less_eq$ ?v4) ?v5) (fun_app$ (fun_app$a less_eq$ (fun_app$c ?v2 ?v4)) (fun_app$c ?v2 ?v5))) ))) (fun_app$ (less$ (fun_app$c ?v2 ?v0)) ?v3)) ))
(assert (forall ((?v0 Enat$) (?v1 Enat$)) (=> (fun_app$ (less$ ?v0) ?v1) (fun_app$ (fun_app$a less_eq$ ?v0) ?v1)) ))
(assert (forall ((?v0 Enat$) (?v1 Enat$)) (=> (fun_app$ (less$ ?v0) ?v1) (fun_app$ (fun_app$a less_eq$ ?v0) ?v1)) ))
(assert (forall ((?v0 Enat$) (?v1 Enat$)) (=> (fun_app$ (less$ ?v0) ?v1) (fun_app$ (fun_app$a less_eq$ ?v0) ?v1)) ))
(assert (forall ((?v0 Enat$) (?v1 Enat$) (?v2 Enat$)) (=> (and (fun_app$ (less$ ?v0) ?v1) (fun_app$ (fun_app$a less_eq$ ?v1) ?v2)) (fun_app$ (less$ ?v0) ?v2)) ))
(assert (forall ((?v0 Enat$) (?v1 Enat$) (?v2 Enat$)) (=> (and (fun_app$ (less$ ?v0) ?v1) (fun_app$ (fun_app$a less_eq$ ?v1) ?v2)) (fun_app$ (less$ ?v0) ?v2)) ))
(assert (forall ((?v0 Enat$) (?v1 Enat$) (?v2 Enat$)) (=> (and (fun_app$ (less$ ?v0) ?v1) (fun_app$ (fun_app$a less_eq$ ?v2) ?v0)) (fun_app$ (less$ ?v2) ?v1)) ))
(assert (forall ((?v0 Enat$) (?v1 Enat_enat_fun$) (?v2 Enat$) (?v3 Enat$)) (=> (and (fun_app$ (less$ ?v0) (fun_app$c ?v1 ?v2)) (and (fun_app$ (fun_app$a less_eq$ ?v2) ?v3) (forall ((?v4 Enat$) (?v5 Enat$)) (=> (fun_app$ (fun_app$a less_eq$ ?v4) ?v5) (fun_app$ (fun_app$a less_eq$ (fun_app$c ?v1 ?v4)) (fun_app$c ?v1 ?v5))) ))) (fun_app$ (less$ ?v0) (fun_app$c ?v1 ?v3))) ))
(assert (forall ((?v0 Enat$) (?v1 Enat$) (?v2 Enat_enat_fun$) (?v3 Enat$)) (=> (and (fun_app$ (less$ ?v0) ?v1) (and (fun_app$ (fun_app$a less_eq$ (fun_app$c ?v2 ?v1)) ?v3) (forall ((?v4 Enat$) (?v5 Enat$)) (=> (fun_app$ (less$ ?v4) ?v5) (fun_app$ (less$ (fun_app$c ?v2 ?v4)) (fun_app$c ?v2 ?v5))) ))) (fun_app$ (less$ (fun_app$c ?v2 ?v0)) ?v3)) ))
(assert (forall ((?v0 Enat$) (?v1 Enat$)) (= (not (fun_app$ (fun_app$a less_eq$ ?v0) ?v1)) (fun_app$ (less$ ?v1) ?v0)) ))
(assert (forall ((?v0 Enat$) (?v1 Enat$)) (= (not (fun_app$ (less$ ?v0) ?v1)) (fun_app$ (fun_app$a less_eq$ ?v1) ?v0)) ))
(assert (forall ((?v0 Enat$) (?v1 Enat$)) (! (= (fun_app$ (fun_app$a less_eq$ ?v0) ?v1) (or (fun_app$ (less$ ?v0) ?v1) (= ?v0 ?v1))) :pattern ((fun_app$ (fun_app$a less_eq$ ?v0) ?v1)))))
(assert (forall ((?v0 Enat$) (?v1 Enat$)) (! (= (fun_app$ (fun_app$a less_eq$ ?v0) ?v1) (or (fun_app$ (less$ ?v0) ?v1) (= ?v0 ?v1))) :pattern ((fun_app$ (fun_app$a less_eq$ ?v0) ?v1)))))
(assert (forall ((?v0 Enat$) (?v1 Enat$)) (! (= (fun_app$ (fun_app$a less_eq$ ?v0) ?v1) (or (fun_app$ (less$ ?v0) ?v1) (= ?v1 ?v0))) :pattern ((fun_app$ (fun_app$a less_eq$ ?v0) ?v1)))))
(assert (forall ((?v0 Enat$) (?v1 Enat$)) (! (= (fun_app$ (less$ ?v0) ?v1) (and (fun_app$ (fun_app$a less_eq$ ?v0) ?v1) (not (fun_app$ (fun_app$a less_eq$ ?v1) ?v0)))) :pattern ((fun_app$ (less$ ?v0) ?v1)))))
(assert (forall ((?v0 Enat$) (?v1 Enat$)) (! (= (fun_app$ (less$ ?v0) ?v1) (and (fun_app$ (fun_app$a less_eq$ ?v0) ?v1) (not (= ?v0 ?v1)))) :pattern ((fun_app$ (less$ ?v0) ?v1)))))
(assert (forall ((?v0 Enat$) (?v1 Enat$)) (! (= (fun_app$ (less$ ?v0) ?v1) (and (fun_app$ (fun_app$a less_eq$ ?v0) ?v1) (not (= ?v0 ?v1)))) :pattern ((fun_app$ (less$ ?v0) ?v1)))))
(assert (forall ((?v0 Enat$) (?v1 Enat$)) (! (= (fun_app$ (less$ ?v0) ?v1) (and (fun_app$ (fun_app$a less_eq$ ?v0) ?v1) (not (= ?v1 ?v0)))) :pattern ((fun_app$ (less$ ?v0) ?v1)))))
(assert (forall ((?v0 A_llist$)) (fun_app$d (fun_app$e lprefix$ lNil$) ?v0) ))
(check-sat)
(exit)

